
Gurobi 12.0.2 (win64) logging started Sun Jun  8 11:32:14 2025

Set parameter LogFile to value "C:\Ioana\_uni\honours\slp\algorithm\Main_files\results\others\prox_tubules_new_model\Task_002_Sample003_irr_gurobi.log"
Gurobi Optimizer version 12.0.2 build v12.0.2rc0 (win64 - Windows 11.0 (26100.2))

CPU model: Intel(R) Core(TM) Ultra 5 125H, instruction set [SSE2|AVX|AVX2]
Thread count: 14 physical cores, 18 logical processors, using up to 18 threads

Non-default parameters:
TimeLimit  2200

Optimize a model with 47226 rows, 34496 columns and 146683 nonzeros
Model fingerprint: 0x49e806a6
Variable types: 17251 continuous, 17245 integer (17245 binary)
Coefficient statistics:
  Matrix range     [1e-04, 8e+04]
  Objective range  [2e-04, 9e-01]
  Bounds range     [1e+00, 1e+03]
  RHS range        [1e+00, 1e+00]
Presolve removed 30825 rows and 21542 columns
Presolve time: 0.32s
Presolved: 16401 rows, 12954 columns, 54578 nonzeros
Variable types: 6409 continuous, 6545 integer (6545 binary)

Root relaxation: objective 1.960681e-03, 2154 iterations, 0.14 seconds (0.23 work units)

    Nodes    |    Current Node    |     Objective Bounds      |     Work
 Expl Unexpl |  Obj  Depth IntInf | Incumbent    BestBd   Gap | It/Node Time

     0     0    0.00196    0    4          -    0.00196      -     -    0s
H    0     0                       1.9606814    0.00196   100%     -    0s
     0     0    1.04738    0    4    1.96068    1.04738  46.6%     -    0s
     0     0    1.04746    0    4    1.96068    1.04746  46.6%     -    0s
     0     0    1.08437    0    1    1.96068    1.08437  44.7%     -    0s
     0     0    1.11617    0    5    1.96068    1.11617  43.1%     -    1s
     0     0          -    0         1.96068    1.96063  0.00%     -    1s

Explored 1 nodes (4138 simplex iterations) in 1.10 seconds (1.25 work units)
Thread count was 18 (of 18 available processors)

Solution count 1: 1.96068 

Optimal solution found (tolerance 1.00e-04)
Best objective 1.960681375155e+00, best bound 1.960629709340e+00, gap 0.0026%
